benchmark/results/graph__10-1000-0.10-04_8/graph__10-1000-0.10-04_8_QuintonOs_Benders_aux.lp
\ This file has been generated by DOcplex
\ ENCODING=ISO-8859-1
\Problem name: Quinton Bounded Benders_auxiliary_sub

Minimize
 obj: 0.001375616286 pi_nr_a0 + 0.001052631579 pi_nr_a1
      + 0.000871469004 pi_nr_a2 + 0.001770931869 pi_nr_a3
      + 0.002113569702 pi_nr_a4 + 0.001739377840 pi_nr_a5
      + 0.001332415258 pi_nr_a6 + 0.000987166470 pi_nr_a7
      + 0.001249995560 pi_nr_a8 + 0.002433073748 pi_nr_a9 + pi_p_a1_a0
      + pi_p_a1_a2 + pi_p_a5_a3 + 1205.107829390101 pi_d_a0_a1_proc_3
      + 1375.029288322913 pi_d_a0_a1_proc_1
      + 1179.970711678248 pi_d_a1_a0_proc_3
      + 1349.892170611060 pi_d_a1_a0_proc_1
      + 2482.451074705568 pi_d_a0_a2_proc_3
      + 1248.561067133884 pi_d_a0_a2_proc_1
      + 2456.315698781172 pi_d_a2_a0_proc_3
      + 1222.425691209488 pi_d_a2_a0_proc_1
      + 2483.039265775230 pi_d_a0_a3_proc_3
      + 2456.039265775243 pi_d_a3_a0_proc_3
      + 2470.416117299908 pi_d_a0_a4_proc_3 + 126.964957539441 pi_d_a0_a4_proc_1
      + 2468.662423653460 pi_d_a4_a0_proc_3 + 125.211263892993 pi_d_a4_a0_proc_1
      + 2477.665410160927 pi_d_a0_a5_proc_3
      + 1361.720572765779 pi_d_a0_a5_proc_1
      + 2451.085820317699 pi_d_a5_a0_proc_3
      + 1335.140982922550 pi_d_a5_a0_proc_1
      + 1058.540213159295 pi_d_a0_a6_proc_1
      + 1076.789175561651 pi_d_a6_a0_proc_1
      + 1205.112697739020 pi_d_a0_a7_proc_3
      + 1179.975490916424 pi_d_a7_a0_proc_3
      + 2482.989267491844 pi_d_a0_a8_proc_3
      + 1375.955705703717 pi_d_a0_a8_proc_1
      + 2455.989401006261 pi_d_a8_a0_proc_3
      + 1348.955839218134 pi_d_a8_a0_proc_1
      + 2483.022664082345 pi_d_a0_a9_proc_3
      + 2456.022690785238 pi_d_a9_a0_proc_3
      + 1267.217529298611 pi_d_a1_a2_proc_3
      + 2417.406062788308 pi_d_a1_a2_proc_1
      + 1287.470703126748 pi_d_a2_a1_proc_3
      + 2437.659236616445 pi_d_a2_a1_proc_1
      + 1290.999995196111 pi_d_a1_a3_proc_3
      + 1263.999995292981 pi_d_a3_a1_proc_3
      + 1290.999999945408 pi_d_a1_a4_proc_3
      + 1331.627381246322 pi_d_a1_a4_proc_1
      + 1263.999999946579 pi_d_a4_a1_proc_3
      + 1304.627381247493 pi_d_a4_a1_proc_1
      + 1285.779734548786 pi_d_a1_a5_proc_3
      + 2553.913438215018 pi_d_a1_a5_proc_1
      + 1258.892954868459 pi_d_a5_a1_proc_3
      + 2527.026658534692 pi_d_a5_a1_proc_1
      + 2273.203964891157 pi_d_a1_a6_proc_1
      + 2246.203964891170 pi_d_a6_a1_proc_1 + 1.004872903802 pi_d_a1_a7_proc_3
      + 0.004774690261 pi_d_a7_a1_proc_3 + 1290.746430361517 pi_d_a1_a8_proc_3
      + 2567.791409634770 pi_d_a1_a8_proc_1
      + 1264.153697075208 pi_d_a8_a1_proc_3
      + 2541.198676348462 pi_d_a8_a1_proc_1
      + 1290.983237983532 pi_d_a1_a9_proc_3
      + 1263.983575822671 pi_d_a9_a1_proc_3
      + 1414.278536846761 pi_d_a2_a3_proc_2
      + 2567.818719279015 pi_d_a2_a3_proc_3
      + 1387.329321196215 pi_d_a3_a2_proc_2
      + 2540.869503628468 pi_d_a3_a2_proc_3
      + 1417.156588101345 pi_d_a2_a4_proc_2
      + 2566.897123335210 pi_d_a2_a4_proc_3
      + 1203.713038131629 pi_d_a2_a4_proc_1
      + 1392.050573741302 pi_d_a4_a2_proc_2
      + 2541.791108975167 pi_d_a4_a2_proc_3
      + 1178.607023771586 pi_d_a4_a2_proc_1 + 147.828655872805 pi_d_a2_a5_proc_2
      + 2550.192275786834 pi_d_a2_a5_proc_3
      + 2414.514512948571 pi_d_a2_a5_proc_1 + 145.805026134772 pi_d_a5_a2_proc_2
      + 2548.168646048801 pi_d_a5_a2_proc_3
      + 2412.490883210538 pi_d_a5_a2_proc_1 + 448.501397423800 pi_d_a2_a6_proc_2
      + 2134.365995775660 pi_d_a2_a6_proc_1 + 445.242635064206 pi_d_a6_a2_proc_2
      + 2131.107233416066 pi_d_a6_a2_proc_1
      + 1418.120293908181 pi_d_a2_a7_proc_2
      + 1290.847217670405 pi_d_a2_a7_proc_3
      + 1391.123738579824 pi_d_a7_a2_proc_2
      + 1263.850662342049 pi_d_a7_a2_proc_3
      + 1418.123080186804 pi_d_a2_a8_proc_2
      + 2567.794178258519 pi_d_a2_a8_proc_3
      + 2441.027691027277 pi_d_a2_a8_proc_1
      + 1391.123083524880 pi_d_a8_a2_proc_2
      + 2540.794181596596 pi_d_a8_a2_proc_3
      + 2414.027694365353 pi_d_a8_a2_proc_1 + 128.533734234851 pi_d_a2_a9_proc_2
      + 2555.221382350031 pi_d_a2_a9_proc_3 + 126.746015759384 pi_d_a9_a2_proc_2
      + 2553.433663874563 pi_d_a9_a2_proc_3
      + 2563.716704153463 pi_d_a3_a4_proc_2
      + 2567.555657569917 pi_d_a3_a4_proc_3
      + 1253.767244178296 pi_d_a3_a4_proc_0
      + 2537.605379387740 pi_d_a4_a3_proc_2
      + 2541.444332804194 pi_d_a4_a3_proc_3
      + 1227.655919412573 pi_d_a4_a3_proc_0
      + 1306.373445639789 pi_d_a3_a5_proc_2
      + 2562.835483736407 pi_d_a3_a5_proc_3
      + 1279.375158066344 pi_d_a5_a3_proc_2
      + 2535.837196162962 pi_d_a5_a3_proc_3
      + 1606.203268696489 pi_d_a3_a6_proc_2
      + 1270.140354375959 pi_d_a3_a6_proc_0
      + 1579.655685490072 pi_d_a6_a3_proc_2
      + 1243.592771169542 pi_d_a6_a3_proc_0
      + 2564.179439281623 pi_d_a3_a7_proc_2
      + 1291.004781226436 pi_d_a3_a7_proc_3
      + 1294.815666058128 pi_d_a3_a7_proc_0
      + 2537.179514904939 pi_d_a7_a3_proc_2
      + 1264.004856849752 pi_d_a7_a3_proc_3
      + 1267.815741681444 pi_d_a7_a3_proc_0
      + 2550.223014576028 pi_d_a3_a8_proc_2
      + 2553.992530830332 pi_d_a3_a8_proc_3 + 3.916827214746 pi_d_a3_a8_proc_0
      + 2551.138070834213 pi_d_a8_a3_proc_2
      + 2554.907587088517 pi_d_a8_a3_proc_3 + 4.831883472931 pi_d_a8_a3_proc_0
      + 1287.155458767756 pi_d_a3_a9_proc_2
      + 2567.941525065524 pi_d_a3_a9_proc_3
      + 1294.777384931962 pi_d_a3_a9_proc_0
      + 1260.239212925035 pi_d_a9_a3_proc_2
      + 2541.025279222803 pi_d_a9_a3_proc_3
      + 1267.861139089242 pi_d_a9_a3_proc_0
      + 1310.020138907879 pi_d_a4_a5_proc_2
      + 2562.682529806109 pi_d_a4_a5_proc_3
      + 1317.443614779063 pi_d_a4_a5_proc_1
      + 1283.327768597924 pi_d_a5_a4_proc_2
      + 2535.990159496154 pi_d_a5_a4_proc_3
      + 1290.751244469108 pi_d_a5_a4_proc_1
      + 1586.463195465688 pi_d_a4_a6_proc_2
      + 2479.173591395971 pi_d_a4_a6_proc_0
      + 1013.065412612966 pi_d_a4_a6_proc_1
      + 1606.995062520544 pi_d_a6_a4_proc_2
      + 2499.705458450827 pi_d_a6_a4_proc_0
      + 1033.597279667822 pi_d_a6_a4_proc_1
      + 2567.979128982408 pi_d_a4_a7_proc_2
      + 1291.004823728833 pi_d_a4_a7_proc_3
      + 2527.388666009726 pi_d_a4_a7_proc_0
      + 2540.979129003824 pi_d_a7_a4_proc_2
      + 1264.004823750249 pi_d_a7_a4_proc_3
      + 2500.388666031142 pi_d_a7_a4_proc_0
      + 2567.534948255505 pi_d_a4_a8_proc_2
      + 2567.504817311421 pi_d_a4_a8_proc_3
      + 1250.002071145036 pi_d_a4_a8_proc_0
      + 1331.177177891396 pi_d_a4_a8_proc_1
      + 2541.425440954406 pi_d_a8_a4_proc_2
      + 2541.395310010322 pi_d_a8_a4_proc_3
      + 1223.892563843937 pi_d_a8_a4_proc_0
      + 1305.067670590297 pi_d_a8_a4_proc_1
      + 1290.996774057062 pi_d_a4_a9_proc_2
      + 2567.983193156442 pi_d_a4_a9_proc_3
      + 2527.392010472081 pi_d_a4_a9_proc_0
      + 1263.997201435399 pi_d_a9_a4_proc_2
      + 2540.983620534780 pi_d_a9_a4_proc_3
      + 2500.392437850418 pi_d_a9_a4_proc_0 + 342.587637250237 pi_d_a5_a6_proc_2
      + 2249.319261442997 pi_d_a5_a6_proc_1 + 335.297140900926 pi_d_a6_a5_proc_2
      + 2242.028765093686 pi_d_a6_a5_proc_1
      + 1310.139810149489 pi_d_a5_a7_proc_2
      + 1285.788589576077 pi_d_a5_a7_proc_3
      + 1283.244968001674 pi_d_a7_a5_proc_2
      + 1258.893747428262 pi_d_a7_a5_proc_3
      + 1310.193452217547 pi_d_a5_a8_proc_2
      + 2562.786405953627 pi_d_a5_a8_proc_3
      + 2553.965088898920 pi_d_a5_a8_proc_1
      + 1283.193457157294 pi_d_a8_a5_proc_2
      + 2535.786410893374 pi_d_a8_a5_proc_3
      + 2526.965093838668 pi_d_a8_a5_proc_1 + 20.405810160702 pi_d_a5_a9_proc_2
      + 2550.015313940246 pi_d_a5_a9_proc_3 + 19.014685496689 pi_d_a9_a5_proc_2
      + 2548.624189276233 pi_d_a9_a5_proc_3
      + 1610.247516863575 pi_d_a6_a7_proc_2
      + 2543.543599545530 pi_d_a6_a7_proc_0
      + 1583.247611768017 pi_d_a7_a6_proc_2
      + 2516.543694449972 pi_d_a7_a6_proc_0
      + 1609.656927776201 pi_d_a6_a8_proc_2
      + 1266.010596320369 pi_d_a6_a8_proc_0
      + 2272.607305733668 pi_d_a6_a8_proc_1
      + 1583.840332079069 pi_d_a8_a6_proc_2
      + 1240.194000623237 pi_d_a8_a6_proc_0
      + 2246.790710036536 pi_d_a8_a6_proc_1 + 322.765416144821 pi_d_a6_a9_proc_2
      + 2533.047198214477 pi_d_a6_a9_proc_0 + 316.765429993000 pi_d_a9_a6_proc_2
      + 2527.047212062655 pi_d_a9_a6_proc_0
      + 2567.794974681096 pi_d_a7_a8_proc_2
      + 1290.751232265371 pi_d_a7_a8_proc_3
      + 1290.847784322300 pi_d_a7_a8_proc_0
      + 2541.202285174174 pi_d_a8_a7_proc_2
      + 1264.158542758449 pi_d_a8_a7_proc_3
      + 1264.255094815378 pi_d_a8_a7_proc_0
      + 1291.015262848990 pi_d_a7_a9_proc_2
      + 1290.988070476728 pi_d_a7_a9_proc_3
      + 2567.996186015681 pi_d_a7_a9_proc_0
      + 1264.015583288831 pi_d_a9_a7_proc_2
      + 1263.988390916570 pi_d_a9_a7_proc_3
      + 2540.996506455522 pi_d_a9_a7_proc_0
      + 1291.016366488694 pi_d_a8_a9_proc_2
      + 2567.933348425924 pi_d_a8_a9_proc_3
      + 1291.054875517599 pi_d_a8_a9_proc_0
      + 1264.016610872805 pi_d_a9_a8_proc_2
      + 2540.933592810035 pi_d_a9_a8_proc_3
      + 1264.055119901710 pi_d_a9_a8_proc_0 + 0.933468496893 pi_y2_a0_proc_1
      + 0.066531503107 pi_y2_a0_proc_3 + 0.000000000001 pi_y2_a1_proc_1
      + 0.999999999999 pi_y2_a1_proc_3 + 0.099426272746 pi_y2_a2_proc_1
      + 0.900451656941 pi_y2_a2_proc_2 + 0.000122070312 pi_y2_a2_proc_3
      + 0.997009154407 pi_y2_a3_proc_0 + 0.002990841867 pi_y2_a3_proc_2
      + 0.000000003725 pi_y2_a3_proc_3 + 0.031799317171 pi_y2_a4_proc_0
      + 0.968185292680 pi_y2_a4_proc_1 + 0.000015390106 pi_y2_a4_proc_2
      + 0.000000000044 pi_y2_a4_proc_3 + 0.010986649666 pi_y2_a5_proc_1
      + 0.984969767488 pi_y2_a5_proc_2 + 0.004043582845 pi_y2_a5_proc_3
      + 0.019148588136 pi_y2_a6_proc_0 + 0.230850458189 pi_y2_a6_proc_1
      + 0.750000953674 pi_y2_a6_proc_2 + 0.000002823769 pi_y2_a7_proc_0
      + 0.000000953674 pi_y2_a7_proc_2 + 0.999996222557 pi_y2_a7_proc_3
      + 0.999956894658 pi_y2_a8_proc_0 + 0.000003881760 pi_y2_a8_proc_1
      + 0.000000119209 pi_y2_a8_proc_2 + 0.000039104372 pi_y2_a8_proc_3
      + 0.000000037441 pi_y2_a9_proc_0 + 0.999986968746 pi_y2_a9_proc_2
      + 0.000012993813 pi_y2_a9_proc_3
Subject To
 c1: 0.001400560224 pi_nr_a0 + 0.001052631579 pi_nr_a1 + 0.000880281690 pi_nr_a2
     + 0.001773049645 pi_nr_a3 + 0.002145922747 pi_nr_a4
     + 0.001751313485 pi_nr_a5 + 0.001317523057 pi_nr_a6
     + 0.000987166831 pi_nr_a7 + 0.001250000000 pi_nr_a8
     + 0.002433090024 pi_nr_a9 + pi_p_a1_a0 + pi_p_a1_a2 + pi_p_a5_a3
     + 1291 pi_d_a0_a1_proc_3 + 1291 pi_d_a0_a1_proc_1 + 1264 pi_d_a1_a0_proc_3
     + 1264 pi_d_a1_a0_proc_1 + 2568 pi_d_a0_a2_proc_3 + 1291 pi_d_a0_a2_proc_1
     + 2541 pi_d_a2_a0_proc_3 + 1264 pi_d_a2_a0_proc_1 + 2568 pi_d_a0_a3_proc_3
     + 2541 pi_d_a3_a0_proc_3 + 2554 pi_d_a0_a4_proc_3 + 2555 pi_d_a4_a0_proc_3
     + pi_d_a4_a0_proc_1 + 2568 pi_d_a0_a5_proc_3 + 1291 pi_d_a0_a5_proc_1
     + 2541 pi_d_a5_a0_proc_3 + 1264 pi_d_a5_a0_proc_1 + 1264 pi_d_a0_a6_proc_1
     + 1291 pi_d_a6_a0_proc_1 + 1291 pi_d_a0_a7_proc_3 + 1264 pi_d_a7_a0_proc_3
     + 2568 pi_d_a0_a8_proc_3 + 1291 pi_d_a0_a8_proc_1 + 2541 pi_d_a8_a0_proc_3
     + 1264 pi_d_a8_a0_proc_1 + 2568 pi_d_a0_a9_proc_3 + 2541 pi_d_a9_a0_proc_3
     + 1264 pi_d_a1_a2_proc_3 + 2541 pi_d_a1_a2_proc_1 + 1291 pi_d_a2_a1_proc_3
     + 2568 pi_d_a2_a1_proc_1 + 1291 pi_d_a1_a3_proc_3 + 1264 pi_d_a3_a1_proc_3
     + 1291 pi_d_a1_a4_proc_3 + 1291 pi_d_a1_a4_proc_1 + 1264 pi_d_a4_a1_proc_3
     + 1264 pi_d_a4_a1_proc_1 + 1291 pi_d_a1_a5_proc_3 + 2568 pi_d_a1_a5_proc_1
     + 1264 pi_d_a5_a1_proc_3 + 2541 pi_d_a5_a1_proc_1 + 2568 pi_d_a1_a6_proc_1
     + 2541 pi_d_a6_a1_proc_1 + pi_d_a1_a7_proc_3 + 1291 pi_d_a1_a8_proc_3
     + 2568 pi_d_a1_a8_proc_1 + 1264 pi_d_a8_a1_proc_3 + 2541 pi_d_a8_a1_proc_1
     + 1291 pi_d_a1_a9_proc_3 + 1264 pi_d_a9_a1_proc_3 + 1291 pi_d_a2_a3_proc_2
     + 2568 pi_d_a2_a3_proc_3 + 1264 pi_d_a3_a2_proc_2 + 2541 pi_d_a3_a2_proc_3
     + 1291 pi_d_a2_a4_proc_2 + 2568 pi_d_a2_a4_proc_3 + 1291 pi_d_a2_a4_proc_1
     + 1264 pi_d_a4_a2_proc_2 + 2541 pi_d_a4_a2_proc_3 + 1264 pi_d_a4_a2_proc_1
     + 2554 pi_d_a2_a5_proc_3 + 2554 pi_d_a2_a5_proc_1 + pi_d_a5_a2_proc_2
     + 2555 pi_d_a5_a2_proc_3 + 2555 pi_d_a5_a2_proc_1 + 2554 pi_d_a2_a6_proc_1
     + pi_d_a6_a2_proc_2 + 2555 pi_d_a6_a2_proc_1 + 1291 pi_d_a2_a7_proc_2
     + 1291 pi_d_a2_a7_proc_3 + 1264 pi_d_a7_a2_proc_2 + 1264 pi_d_a7_a2_proc_3
     + 1291 pi_d_a2_a8_proc_2 + 2568 pi_d_a2_a8_proc_3 + 2568 pi_d_a2_a8_proc_1
     + 1264 pi_d_a8_a2_proc_2 + 2541 pi_d_a8_a2_proc_3 + 2541 pi_d_a8_a2_proc_1
     + 2554 pi_d_a2_a9_proc_3 + pi_d_a9_a2_proc_2 + 2555 pi_d_a9_a2_proc_3
     + 2568 pi_d_a3_a4_proc_2 + 2568 pi_d_a3_a4_proc_3 + 1291 pi_d_a3_a4_proc_0
     + 2541 pi_d_a4_a3_proc_2 + 2541 pi_d_a4_a3_proc_3 + 1264 pi_d_a4_a3_proc_0
     + 1291 pi_d_a3_a5_proc_2 + 2568 pi_d_a3_a5_proc_3 + 1264 pi_d_a5_a3_proc_2
     + 2541 pi_d_a5_a3_proc_3 + 1291 pi_d_a3_a6_proc_2 + 1291 pi_d_a3_a6_proc_0
     + 1264 pi_d_a6_a3_proc_2 + 1264 pi_d_a6_a3_proc_0 + 2568 pi_d_a3_a7_proc_2
     + 1291 pi_d_a3_a7_proc_3 + 1291 pi_d_a3_a7_proc_0 + 2541 pi_d_a7_a3_proc_2
     + 1264 pi_d_a7_a3_proc_3 + 1264 pi_d_a7_a3_proc_0 + 2554 pi_d_a3_a8_proc_2
     + 2554 pi_d_a3_a8_proc_3 + 2555 pi_d_a8_a3_proc_2 + 2555 pi_d_a8_a3_proc_3
     + pi_d_a8_a3_proc_0 + 1291 pi_d_a3_a9_proc_2 + 2568 pi_d_a3_a9_proc_3
     + 1291 pi_d_a3_a9_proc_0 + 1264 pi_d_a9_a3_proc_2 + 2541 pi_d_a9_a3_proc_3
     + 1264 pi_d_a9_a3_proc_0 + 1291 pi_d_a4_a5_proc_2 + 2568 pi_d_a4_a5_proc_3
     + 1291 pi_d_a4_a5_proc_1 + 1264 pi_d_a5_a4_proc_2 + 2541 pi_d_a5_a4_proc_3
     + 1264 pi_d_a5_a4_proc_1 + 1264 pi_d_a4_a6_proc_2 + 2541 pi_d_a4_a6_proc_0
     + 1264 pi_d_a4_a6_proc_1 + 1291 pi_d_a6_a4_proc_2 + 2568 pi_d_a6_a4_proc_0
     + 1291 pi_d_a6_a4_proc_1 + 2568 pi_d_a4_a7_proc_2 + 1291 pi_d_a4_a7_proc_3
     + 2568 pi_d_a4_a7_proc_0 + 2541 pi_d_a7_a4_proc_2 + 1264 pi_d_a7_a4_proc_3
     + 2541 pi_d_a7_a4_proc_0 + 2568 pi_d_a4_a8_proc_2 + 2568 pi_d_a4_a8_proc_3
     + 1291 pi_d_a4_a8_proc_0 + 1291 pi_d_a4_a8_proc_1 + 2541 pi_d_a8_a4_proc_2
     + 2541 pi_d_a8_a4_proc_3 + 1264 pi_d_a8_a4_proc_0 + 1264 pi_d_a8_a4_proc_1
     + 1291 pi_d_a4_a9_proc_2 + 2568 pi_d_a4_a9_proc_3 + 2568 pi_d_a4_a9_proc_0
     + 1264 pi_d_a9_a4_proc_2 + 2541 pi_d_a9_a4_proc_3 + 2541 pi_d_a9_a4_proc_0
     + pi_d_a5_a6_proc_2 + 2555 pi_d_a5_a6_proc_1 + 2554 pi_d_a6_a5_proc_1
     + 1291 pi_d_a5_a7_proc_2 + 1291 pi_d_a5_a7_proc_3 + 1264 pi_d_a7_a5_proc_2
     + 1264 pi_d_a7_a5_proc_3 + 1291 pi_d_a5_a8_proc_2 + 2568 pi_d_a5_a8_proc_3
     + 2568 pi_d_a5_a8_proc_1 + 1264 pi_d_a8_a5_proc_2 + 2541 pi_d_a8_a5_proc_3
     + 2541 pi_d_a8_a5_proc_1 + pi_d_a5_a9_proc_2 + 2555 pi_d_a5_a9_proc_3
     + 2554 pi_d_a9_a5_proc_3 + 1291 pi_d_a6_a7_proc_2 + 2568 pi_d_a6_a7_proc_0
     + 1264 pi_d_a7_a6_proc_2 + 2541 pi_d_a7_a6_proc_0 + 1291 pi_d_a6_a8_proc_2
     + 1291 pi_d_a6_a8_proc_0 + 2568 pi_d_a6_a8_proc_1 + 1264 pi_d_a8_a6_proc_2
     + 1264 pi_d_a8_a6_proc_0 + 2541 pi_d_a8_a6_proc_1 + 2554 pi_d_a6_a9_proc_0
     + pi_d_a9_a6_proc_2 + 2555 pi_d_a9_a6_proc_0 + 2568 pi_d_a7_a8_proc_2
     + 1291 pi_d_a7_a8_proc_3 + 1291 pi_d_a7_a8_proc_0 + 2541 pi_d_a8_a7_proc_2
     + 1264 pi_d_a8_a7_proc_3 + 1264 pi_d_a8_a7_proc_0 + 1291 pi_d_a7_a9_proc_2
     + 1291 pi_d_a7_a9_proc_3 + 2568 pi_d_a7_a9_proc_0 + 1264 pi_d_a9_a7_proc_2
     + 1264 pi_d_a9_a7_proc_3 + 2541 pi_d_a9_a7_proc_0 + 1291 pi_d_a8_a9_proc_2
     + 2568 pi_d_a8_a9_proc_3 + 1291 pi_d_a8_a9_proc_0 + 1264 pi_d_a9_a8_proc_2
     + 2541 pi_d_a9_a8_proc_3 + 1264 pi_d_a9_a8_proc_0 + pi_y2_a0_proc_1
     + pi_y2_a1_proc_3 + pi_y2_a2_proc_2 + pi_y2_a3_proc_0 + pi_y2_a4_proc_1
     + pi_y2_a5_proc_2 + pi_y2_a6_proc_2 + pi_y2_a7_proc_3 + pi_y2_a8_proc_0
     + pi_y2_a9_proc_2 = 0.000169176112
 c2: pi_nr_a0 + pi_nr_a1 + pi_nr_a2 + pi_nr_a3 + pi_nr_a4 + pi_nr_a5 + pi_nr_a6
     + pi_nr_a7 + pi_nr_a8 + pi_nr_a9 - pi_y1_a0 - pi_y1_a1 - pi_y1_a2
     - pi_y1_a3 - pi_y1_a4 - pi_y1_a5 - pi_y1_a6 - pi_y1_a7 - pi_y1_a8
     - pi_y1_a9 >= 1
 c3: - pi_p_a1_a0 + pi_p_a0_a4 + pi_p_a0_a1 + pi_d_a0_a1_proc_3
     + pi_d_a0_a1_proc_1 - pi_d_a1_a0_proc_3 - pi_d_a1_a0_proc_1
     + pi_d_a0_a2_proc_3 + pi_d_a0_a2_proc_1 - pi_d_a2_a0_proc_3
     - pi_d_a2_a0_proc_1 + pi_d_a0_a3_proc_3 - pi_d_a3_a0_proc_3
     + pi_d_a0_a4_proc_3 + pi_d_a0_a4_proc_1 - pi_d_a4_a0_proc_3
     - pi_d_a4_a0_proc_1 + pi_d_a0_a5_proc_3 + pi_d_a0_a5_proc_1
     - pi_d_a5_a0_proc_3 - pi_d_a5_a0_proc_1 + pi_d_a0_a6_proc_1
     - pi_d_a6_a0_proc_1 + pi_d_a0_a7_proc_3 - pi_d_a7_a0_proc_3
     + pi_d_a0_a8_proc_3 + pi_d_a0_a8_proc_1 - pi_d_a8_a0_proc_3
     - pi_d_a8_a0_proc_1 + pi_d_a0_a9_proc_3 - pi_d_a9_a0_proc_3 >= 0
 c4: 714 pi_p_a0_a4 + 714 pi_p_a0_a1 + 714 pi_d_a0_a1_proc_1
     + 714 pi_d_a0_a2_proc_1 + 714 pi_d_a0_a4_proc_1 + 714 pi_d_a0_a5_proc_1
     + 714 pi_d_a0_a6_proc_1 + 714 pi_d_a0_a8_proc_1 + pi_y1_a0
     + pi_y2_a0_proc_1 >= 0
 c5: 975 pi_p_a0_a4 + 975 pi_p_a0_a1 + 975 pi_d_a0_a1_proc_3
     + 975 pi_d_a0_a2_proc_3 + 975 pi_d_a0_a3_proc_3 + 975 pi_d_a0_a4_proc_3
     + 975 pi_d_a0_a5_proc_3 + 975 pi_d_a0_a7_proc_3 + 975 pi_d_a0_a8_proc_3
     + 975 pi_d_a0_a9_proc_3 + pi_y1_a0 + pi_y2_a0_proc_3 >= 0
 c6: pi_p_a1_a0 + pi_p_a1_a2 + pi_p_a1_a5 - pi_p_a0_a1 - pi_p_a9_a1
     - pi_d_a0_a1_proc_3 - pi_d_a0_a1_proc_1 + pi_d_a1_a0_proc_3
     + pi_d_a1_a0_proc_1 + pi_d_a1_a2_proc_3 + pi_d_a1_a2_proc_1
     - pi_d_a2_a1_proc_3 - pi_d_a2_a1_proc_1 + pi_d_a1_a3_proc_3
     - pi_d_a3_a1_proc_3 + pi_d_a1_a4_proc_3 + pi_d_a1_a4_proc_1
     - pi_d_a4_a1_proc_3 - pi_d_a4_a1_proc_1 + pi_d_a1_a5_proc_3
     + pi_d_a1_a5_proc_1 - pi_d_a5_a1_proc_3 - pi_d_a5_a1_proc_1
     + pi_d_a1_a6_proc_1 - pi_d_a6_a1_proc_1 + pi_d_a1_a7_proc_3
     - pi_d_a7_a1_proc_3 + pi_d_a1_a8_proc_3 + pi_d_a1_a8_proc_1
     - pi_d_a8_a1_proc_3 - pi_d_a8_a1_proc_1 + pi_d_a1_a9_proc_3
     - pi_d_a9_a1_proc_3 >= 0
 c7: 1067 pi_p_a1_a0 + 1067 pi_p_a1_a2 + 1067 pi_p_a1_a5
     + 1067 pi_d_a1_a0_proc_1 + 1067 pi_d_a1_a2_proc_1 + 1067 pi_d_a1_a4_proc_1
     + 1067 pi_d_a1_a5_proc_1 + 1067 pi_d_a1_a6_proc_1 + 1067 pi_d_a1_a8_proc_1
     + pi_y1_a1 + pi_y2_a1_proc_1 >= 0
 c8: 950 pi_p_a1_a0 + 950 pi_p_a1_a2 + 950 pi_p_a1_a5 + 950 pi_d_a1_a0_proc_3
     + 950 pi_d_a1_a2_proc_3 + 950 pi_d_a1_a3_proc_3 + 950 pi_d_a1_a4_proc_3
     + 950 pi_d_a1_a5_proc_3 + 950 pi_d_a1_a7_proc_3 + 950 pi_d_a1_a8_proc_3
     + 950 pi_d_a1_a9_proc_3 + pi_y1_a1 + pi_y2_a1_proc_3 >= 0
 c9: - pi_p_a1_a2 - pi_p_a3_a2 + pi_p_a2_a6 + pi_p_a2_a4 - pi_d_a0_a2_proc_3
     - pi_d_a0_a2_proc_1 + pi_d_a2_a0_proc_3 + pi_d_a2_a0_proc_1
     - pi_d_a1_a2_proc_3 - pi_d_a1_a2_proc_1 + pi_d_a2_a1_proc_3
     + pi_d_a2_a1_proc_1 + pi_d_a2_a3_proc_2 + pi_d_a2_a3_proc_3
     - pi_d_a3_a2_proc_2 - pi_d_a3_a2_proc_3 + pi_d_a2_a4_proc_2
     + pi_d_a2_a4_proc_3 + pi_d_a2_a4_proc_1 - pi_d_a4_a2_proc_2
     - pi_d_a4_a2_proc_3 - pi_d_a4_a2_proc_1 + pi_d_a2_a5_proc_2
     + pi_d_a2_a5_proc_3 + pi_d_a2_a5_proc_1 - pi_d_a5_a2_proc_2
     - pi_d_a5_a2_proc_3 - pi_d_a5_a2_proc_1 + pi_d_a2_a6_proc_2
     + pi_d_a2_a6_proc_1 - pi_d_a6_a2_proc_2 - pi_d_a6_a2_proc_1
     + pi_d_a2_a7_proc_2 + pi_d_a2_a7_proc_3 - pi_d_a7_a2_proc_2
     - pi_d_a7_a2_proc_3 + pi_d_a2_a8_proc_2 + pi_d_a2_a8_proc_3
     + pi_d_a2_a8_proc_1 - pi_d_a8_a2_proc_2 - pi_d_a8_a2_proc_3
     - pi_d_a8_a2_proc_1 + pi_d_a2_a9_proc_2 + pi_d_a2_a9_proc_3
     - pi_d_a9_a2_proc_2 - pi_d_a9_a2_proc_3 >= 0
 c10: 1263 pi_p_a2_a6 + 1263 pi_p_a2_a4 + 1263 pi_d_a2_a0_proc_1
      + 1263 pi_d_a2_a1_proc_1 + 1263 pi_d_a2_a4_proc_1 + 1263 pi_d_a2_a5_proc_1
      + 1263 pi_d_a2_a6_proc_1 + 1263 pi_d_a2_a8_proc_1 + pi_y1_a2
      + pi_y2_a2_proc_1 >= 0
 c11: 1136 pi_p_a2_a6 + 1136 pi_p_a2_a4 + 1136 pi_d_a2_a3_proc_2
      + 1136 pi_d_a2_a4_proc_2 + 1136 pi_d_a2_a5_proc_2 + 1136 pi_d_a2_a6_proc_2
      + 1136 pi_d_a2_a7_proc_2 + 1136 pi_d_a2_a8_proc_2 + 1136 pi_d_a2_a9_proc_2
      + pi_y1_a2 + pi_y2_a2_proc_2 >= 0
 c12: 1277 pi_p_a2_a6 + 1277 pi_p_a2_a4 + 1277 pi_d_a2_a0_proc_3
      + 1277 pi_d_a2_a1_proc_3 + 1277 pi_d_a2_a3_proc_3 + 1277 pi_d_a2_a4_proc_3
      + 1277 pi_d_a2_a5_proc_3 + 1277 pi_d_a2_a7_proc_3 + 1277 pi_d_a2_a8_proc_3
      + 1277 pi_d_a2_a9_proc_3 + pi_y1_a2 + pi_y2_a2_proc_3 >= 0
 c13: pi_p_a3_a2 - pi_p_a5_a3 + pi_p_a3_a6 - pi_d_a0_a3_proc_3
      + pi_d_a3_a0_proc_3 - pi_d_a1_a3_proc_3 + pi_d_a3_a1_proc_3
      - pi_d_a2_a3_proc_2 - pi_d_a2_a3_proc_3 + pi_d_a3_a2_proc_2
      + pi_d_a3_a2_proc_3 + pi_d_a3_a4_proc_2 + pi_d_a3_a4_proc_3
      + pi_d_a3_a4_proc_0 - pi_d_a4_a3_proc_2 - pi_d_a4_a3_proc_3
      - pi_d_a4_a3_proc_0 + pi_d_a3_a5_proc_2 + pi_d_a3_a5_proc_3
      - pi_d_a5_a3_proc_2 - pi_d_a5_a3_proc_3 + pi_d_a3_a6_proc_2
      + pi_d_a3_a6_proc_0 - pi_d_a6_a3_proc_2 - pi_d_a6_a3_proc_0
      + pi_d_a3_a7_proc_2 + pi_d_a3_a7_proc_3 + pi_d_a3_a7_proc_0
      - pi_d_a7_a3_proc_2 - pi_d_a7_a3_proc_3 - pi_d_a7_a3_proc_0
      + pi_d_a3_a8_proc_2 + pi_d_a3_a8_proc_3 + pi_d_a3_a8_proc_0
      - pi_d_a8_a3_proc_2 - pi_d_a8_a3_proc_3 - pi_d_a8_a3_proc_0
      + pi_d_a3_a9_proc_2 + pi_d_a3_a9_proc_3 + pi_d_a3_a9_proc_0
      - pi_d_a9_a3_proc_2 - pi_d_a9_a3_proc_3 - pi_d_a9_a3_proc_0 >= 0
 c14: 564 pi_p_a3_a2 + 564 pi_p_a3_a6 + 564 pi_d_a3_a4_proc_0
      + 564 pi_d_a3_a6_proc_0 + 564 pi_d_a3_a7_proc_0 + 564 pi_d_a3_a8_proc_0
      + 564 pi_d_a3_a9_proc_0 + pi_y1_a3 + pi_y2_a3_proc_0 >= 0
 c15: 939 pi_p_a3_a2 + 939 pi_p_a3_a6 + 939 pi_d_a3_a2_proc_2
      + 939 pi_d_a3_a4_proc_2 + 939 pi_d_a3_a5_proc_2 + 939 pi_d_a3_a6_proc_2
      + 939 pi_d_a3_a7_proc_2 + 939 pi_d_a3_a8_proc_2 + 939 pi_d_a3_a9_proc_2
      + pi_y1_a3 + pi_y2_a3_proc_2 >= 0
 c16: 633 pi_p_a3_a2 + 633 pi_p_a3_a6 + 633 pi_d_a3_a0_proc_3
      + 633 pi_d_a3_a1_proc_3 + 633 pi_d_a3_a2_proc_3 + 633 pi_d_a3_a4_proc_3
      + 633 pi_d_a3_a5_proc_3 + 633 pi_d_a3_a7_proc_3 + 633 pi_d_a3_a8_proc_3
      + 633 pi_d_a3_a9_proc_3 + pi_y1_a3 + pi_y2_a3_proc_3 >= 0
 c17: - pi_p_a0_a4 + pi_p_a4_a7 - pi_p_a2_a4 + pi_p_a4_a8 - pi_d_a0_a4_proc_3
      - pi_d_a0_a4_proc_1 + pi_d_a4_a0_proc_3 + pi_d_a4_a0_proc_1
      - pi_d_a1_a4_proc_3 - pi_d_a1_a4_proc_1 + pi_d_a4_a1_proc_3
      + pi_d_a4_a1_proc_1 - pi_d_a2_a4_proc_2 - pi_d_a2_a4_proc_3
      - pi_d_a2_a4_proc_1 + pi_d_a4_a2_proc_2 + pi_d_a4_a2_proc_3
      + pi_d_a4_a2_proc_1 - pi_d_a3_a4_proc_2 - pi_d_a3_a4_proc_3
      - pi_d_a3_a4_proc_0 + pi_d_a4_a3_proc_2 + pi_d_a4_a3_proc_3
      + pi_d_a4_a3_proc_0 + pi_d_a4_a5_proc_2 + pi_d_a4_a5_proc_3
      + pi_d_a4_a5_proc_1 - pi_d_a5_a4_proc_2 - pi_d_a5_a4_proc_3
      - pi_d_a5_a4_proc_1 + pi_d_a4_a6_proc_2 + pi_d_a4_a6_proc_0
      + pi_d_a4_a6_proc_1 - pi_d_a6_a4_proc_2 - pi_d_a6_a4_proc_0
      - pi_d_a6_a4_proc_1 + pi_d_a4_a7_proc_2 + pi_d_a4_a7_proc_3
      + pi_d_a4_a7_proc_0 - pi_d_a7_a4_proc_2 - pi_d_a7_a4_proc_3
      - pi_d_a7_a4_proc_0 + pi_d_a4_a8_proc_2 + pi_d_a4_a8_proc_3
      + pi_d_a4_a8_proc_0 + pi_d_a4_a8_proc_1 - pi_d_a8_a4_proc_2
      - pi_d_a8_a4_proc_3 - pi_d_a8_a4_proc_0 - pi_d_a8_a4_proc_1
      + pi_d_a4_a9_proc_2 + pi_d_a4_a9_proc_3 + pi_d_a4_a9_proc_0
      - pi_d_a9_a4_proc_2 - pi_d_a9_a4_proc_3 - pi_d_a9_a4_proc_0 >= 0
 c18: 886 pi_p_a4_a7 + 886 pi_p_a4_a8 + 886 pi_d_a4_a3_proc_0
      + 886 pi_d_a4_a6_proc_0 + 886 pi_d_a4_a7_proc_0 + 886 pi_d_a4_a8_proc_0
      + 886 pi_d_a4_a9_proc_0 + pi_y1_a4 + pi_y2_a4_proc_0 >= 0
 c19: 466 pi_p_a4_a7 + 466 pi_p_a4_a8 + 466 pi_d_a4_a0_proc_1
      + 466 pi_d_a4_a1_proc_1 + 466 pi_d_a4_a2_proc_1 + 466 pi_d_a4_a5_proc_1
      + 466 pi_d_a4_a6_proc_1 + 466 pi_d_a4_a8_proc_1 + pi_y1_a4
      + pi_y2_a4_proc_1 >= 0
 c20: 550 pi_p_a4_a7 + 550 pi_p_a4_a8 + 550 pi_d_a4_a2_proc_2
      + 550 pi_d_a4_a3_proc_2 + 550 pi_d_a4_a5_proc_2 + 550 pi_d_a4_a6_proc_2
      + 550 pi_d_a4_a7_proc_2 + 550 pi_d_a4_a8_proc_2 + 550 pi_d_a4_a9_proc_2
      + pi_y1_a4 + pi_y2_a4_proc_2 >= 0
 c21: 1048 pi_p_a4_a7 + 1048 pi_p_a4_a8 + 1048 pi_d_a4_a0_proc_3
      + 1048 pi_d_a4_a1_proc_3 + 1048 pi_d_a4_a2_proc_3 + 1048 pi_d_a4_a3_proc_3
      + 1048 pi_d_a4_a5_proc_3 + 1048 pi_d_a4_a7_proc_3 + 1048 pi_d_a4_a8_proc_3
      + 1048 pi_d_a4_a9_proc_3 + pi_y1_a4 + pi_y2_a4_proc_3 >= 0
 c22: - pi_p_a1_a5 + pi_p_a5_a3 - pi_p_a6_a5 - pi_d_a0_a5_proc_3
      - pi_d_a0_a5_proc_1 + pi_d_a5_a0_proc_3 + pi_d_a5_a0_proc_1
      - pi_d_a1_a5_proc_3 - pi_d_a1_a5_proc_1 + pi_d_a5_a1_proc_3
      + pi_d_a5_a1_proc_1 - pi_d_a2_a5_proc_2 - pi_d_a2_a5_proc_3
      - pi_d_a2_a5_proc_1 + pi_d_a5_a2_proc_2 + pi_d_a5_a2_proc_3
      + pi_d_a5_a2_proc_1 - pi_d_a3_a5_proc_2 - pi_d_a3_a5_proc_3
      + pi_d_a5_a3_proc_2 + pi_d_a5_a3_proc_3 - pi_d_a4_a5_proc_2
      - pi_d_a4_a5_proc_3 - pi_d_a4_a5_proc_1 + pi_d_a5_a4_proc_2
      + pi_d_a5_a4_proc_3 + pi_d_a5_a4_proc_1 + pi_d_a5_a6_proc_2
      + pi_d_a5_a6_proc_1 - pi_d_a6_a5_proc_2 - pi_d_a6_a5_proc_1
      + pi_d_a5_a7_proc_2 + pi_d_a5_a7_proc_3 - pi_d_a7_a5_proc_2
      - pi_d_a7_a5_proc_3 + pi_d_a5_a8_proc_2 + pi_d_a5_a8_proc_3
      + pi_d_a5_a8_proc_1 - pi_d_a8_a5_proc_2 - pi_d_a8_a5_proc_3
      - pi_d_a8_a5_proc_1 + pi_d_a5_a9_proc_2 + pi_d_a5_a9_proc_3
      - pi_d_a9_a5_proc_2 - pi_d_a9_a5_proc_3 >= 0
 c23: 1122 pi_p_a5_a3 + 1122 pi_d_a5_a0_proc_1 + 1122 pi_d_a5_a1_proc_1
      + 1122 pi_d_a5_a2_proc_1 + 1122 pi_d_a5_a4_proc_1 + 1122 pi_d_a5_a6_proc_1
      + 1122 pi_d_a5_a8_proc_1 + pi_y1_a5 + pi_y2_a5_proc_1 >= 0
 c24: 571 pi_p_a5_a3 + 571 pi_d_a5_a2_proc_2 + 571 pi_d_a5_a3_proc_2
      + 571 pi_d_a5_a4_proc_2 + 571 pi_d_a5_a6_proc_2 + 571 pi_d_a5_a7_proc_2
      + 571 pi_d_a5_a8_proc_2 + 571 pi_d_a5_a9_proc_2 + pi_y1_a5
      + pi_y2_a5_proc_2 >= 0
 c25: 880 pi_p_a5_a3 + 880 pi_d_a5_a0_proc_3 + 880 pi_d_a5_a1_proc_3
      + 880 pi_d_a5_a2_proc_3 + 880 pi_d_a5_a3_proc_3 + 880 pi_d_a5_a4_proc_3
      + 880 pi_d_a5_a7_proc_3 + 880 pi_d_a5_a8_proc_3 + 880 pi_d_a5_a9_proc_3
      + pi_y1_a5 + pi_y2_a5_proc_3 >= 0
 c26: - pi_p_a2_a6 + pi_p_a6_a5 - pi_p_a3_a6 - pi_d_a0_a6_proc_1
      + pi_d_a6_a0_proc_1 - pi_d_a1_a6_proc_1 + pi_d_a6_a1_proc_1
      - pi_d_a2_a6_proc_2 - pi_d_a2_a6_proc_1 + pi_d_a6_a2_proc_2
      + pi_d_a6_a2_proc_1 - pi_d_a3_a6_proc_2 - pi_d_a3_a6_proc_0
      + pi_d_a6_a3_proc_2 + pi_d_a6_a3_proc_0 - pi_d_a4_a6_proc_2
      - pi_d_a4_a6_proc_0 - pi_d_a4_a6_proc_1 + pi_d_a6_a4_proc_2
      + pi_d_a6_a4_proc_0 + pi_d_a6_a4_proc_1 - pi_d_a5_a6_proc_2
      - pi_d_a5_a6_proc_1 + pi_d_a6_a5_proc_2 + pi_d_a6_a5_proc_1
      + pi_d_a6_a7_proc_2 + pi_d_a6_a7_proc_0 - pi_d_a7_a6_proc_2
      - pi_d_a7_a6_proc_0 + pi_d_a6_a8_proc_2 + pi_d_a6_a8_proc_0
      + pi_d_a6_a8_proc_1 - pi_d_a8_a6_proc_2 - pi_d_a8_a6_proc_0
      - pi_d_a8_a6_proc_1 + pi_d_a6_a9_proc_2 + pi_d_a6_a9_proc_0
      - pi_d_a9_a6_proc_2 - pi_d_a9_a6_proc_0 >= 0
 c27: 585 pi_p_a6_a5 + 585 pi_d_a6_a3_proc_0 + 585 pi_d_a6_a4_proc_0
      + 585 pi_d_a6_a7_proc_0 + 585 pi_d_a6_a8_proc_0 + 585 pi_d_a6_a9_proc_0
      + pi_y1_a6 + pi_y2_a6_proc_0 >= 0
 c28: 741 pi_p_a6_a5 + 741 pi_d_a6_a0_proc_1 + 741 pi_d_a6_a1_proc_1
      + 741 pi_d_a6_a2_proc_1 + 741 pi_d_a6_a4_proc_1 + 741 pi_d_a6_a5_proc_1
      + 741 pi_d_a6_a8_proc_1 + pi_y1_a6 + pi_y2_a6_proc_1 >= 0
 c29: 759 pi_p_a6_a5 + 759 pi_d_a6_a2_proc_2 + 759 pi_d_a6_a3_proc_2
      + 759 pi_d_a6_a4_proc_2 + 759 pi_d_a6_a5_proc_2 + 759 pi_d_a6_a7_proc_2
      + 759 pi_d_a6_a8_proc_2 + 759 pi_d_a6_a9_proc_2 + pi_y1_a6
      + pi_y2_a6_proc_2 >= 0
 c30: - pi_p_a4_a7 - pi_p_a8_a7 + pi_p_a7_a9 - pi_d_a0_a7_proc_3
      + pi_d_a7_a0_proc_3 - pi_d_a1_a7_proc_3 + pi_d_a7_a1_proc_3
      - pi_d_a2_a7_proc_2 - pi_d_a2_a7_proc_3 + pi_d_a7_a2_proc_2
      + pi_d_a7_a2_proc_3 - pi_d_a3_a7_proc_2 - pi_d_a3_a7_proc_3
      - pi_d_a3_a7_proc_0 + pi_d_a7_a3_proc_2 + pi_d_a7_a3_proc_3
      + pi_d_a7_a3_proc_0 - pi_d_a4_a7_proc_2 - pi_d_a4_a7_proc_3
      - pi_d_a4_a7_proc_0 + pi_d_a7_a4_proc_2 + pi_d_a7_a4_proc_3
      + pi_d_a7_a4_proc_0 - pi_d_a5_a7_proc_2 - pi_d_a5_a7_proc_3
      + pi_d_a7_a5_proc_2 + pi_d_a7_a5_proc_3 - pi_d_a6_a7_proc_2
      - pi_d_a6_a7_proc_0 + pi_d_a7_a6_proc_2 + pi_d_a7_a6_proc_0
      + pi_d_a7_a8_proc_2 + pi_d_a7_a8_proc_3 + pi_d_a7_a8_proc_0
      - pi_d_a8_a7_proc_2 - pi_d_a8_a7_proc_3 - pi_d_a8_a7_proc_0
      + pi_d_a7_a9_proc_2 + pi_d_a7_a9_proc_3 + pi_d_a7_a9_proc_0
      - pi_d_a9_a7_proc_2 - pi_d_a9_a7_proc_3 - pi_d_a9_a7_proc_0 >= 0
 c31: 1098 pi_p_a7_a9 + 1098 pi_d_a7_a3_proc_0 + 1098 pi_d_a7_a4_proc_0
      + 1098 pi_d_a7_a6_proc_0 + 1098 pi_d_a7_a8_proc_0 + 1098 pi_d_a7_a9_proc_0
      + pi_y1_a7 + pi_y2_a7_proc_0 >= 0
 c32: 1198 pi_p_a7_a9 + 1198 pi_d_a7_a2_proc_2 + 1198 pi_d_a7_a3_proc_2
      + 1198 pi_d_a7_a4_proc_2 + 1198 pi_d_a7_a5_proc_2 + 1198 pi_d_a7_a6_proc_2
      + 1198 pi_d_a7_a8_proc_2 + 1198 pi_d_a7_a9_proc_2 + pi_y1_a7
      + pi_y2_a7_proc_2 >= 0
 c33: 1013 pi_p_a7_a9 + 1013 pi_d_a7_a0_proc_3 + 1013 pi_d_a7_a1_proc_3
      + 1013 pi_d_a7_a2_proc_3 + 1013 pi_d_a7_a3_proc_3 + 1013 pi_d_a7_a4_proc_3
      + 1013 pi_d_a7_a5_proc_3 + 1013 pi_d_a7_a8_proc_3 + 1013 pi_d_a7_a9_proc_3
      + pi_y1_a7 + pi_y2_a7_proc_3 >= 0
 c34: pi_p_a8_a7 - pi_p_a4_a8 - pi_d_a0_a8_proc_3 - pi_d_a0_a8_proc_1
      + pi_d_a8_a0_proc_3 + pi_d_a8_a0_proc_1 - pi_d_a1_a8_proc_3
      - pi_d_a1_a8_proc_1 + pi_d_a8_a1_proc_3 + pi_d_a8_a1_proc_1
      - pi_d_a2_a8_proc_2 - pi_d_a2_a8_proc_3 - pi_d_a2_a8_proc_1
      + pi_d_a8_a2_proc_2 + pi_d_a8_a2_proc_3 + pi_d_a8_a2_proc_1
      - pi_d_a3_a8_proc_2 - pi_d_a3_a8_proc_3 - pi_d_a3_a8_proc_0
      + pi_d_a8_a3_proc_2 + pi_d_a8_a3_proc_3 + pi_d_a8_a3_proc_0
      - pi_d_a4_a8_proc_2 - pi_d_a4_a8_proc_3 - pi_d_a4_a8_proc_0
      - pi_d_a4_a8_proc_1 + pi_d_a8_a4_proc_2 + pi_d_a8_a4_proc_3
      + pi_d_a8_a4_proc_0 + pi_d_a8_a4_proc_1 - pi_d_a5_a8_proc_2
      - pi_d_a5_a8_proc_3 - pi_d_a5_a8_proc_1 + pi_d_a8_a5_proc_2
      + pi_d_a8_a5_proc_3 + pi_d_a8_a5_proc_1 - pi_d_a6_a8_proc_2
      - pi_d_a6_a8_proc_0 - pi_d_a6_a8_proc_1 + pi_d_a8_a6_proc_2
      + pi_d_a8_a6_proc_0 + pi_d_a8_a6_proc_1 - pi_d_a7_a8_proc_2
      - pi_d_a7_a8_proc_3 - pi_d_a7_a8_proc_0 + pi_d_a8_a7_proc_2
      + pi_d_a8_a7_proc_3 + pi_d_a8_a7_proc_0 + pi_d_a8_a9_proc_2
      + pi_d_a8_a9_proc_3 + pi_d_a8_a9_proc_0 - pi_d_a9_a8_proc_2
      - pi_d_a9_a8_proc_3 - pi_d_a9_a8_proc_0 >= 0
 c35: 800 pi_p_a8_a7 + 800 pi_d_a8_a3_proc_0 + 800 pi_d_a8_a4_proc_0
      + 800 pi_d_a8_a6_proc_0 + 800 pi_d_a8_a7_proc_0 + 800 pi_d_a8_a9_proc_0
      + pi_y1_a8 + pi_y2_a8_proc_0 >= 0
 c36: 1101 pi_p_a8_a7 + 1101 pi_d_a8_a0_proc_1 + 1101 pi_d_a8_a1_proc_1
      + 1101 pi_d_a8_a2_proc_1 + 1101 pi_d_a8_a4_proc_1 + 1101 pi_d_a8_a5_proc_1
      + 1101 pi_d_a8_a6_proc_1 + pi_y1_a8 + pi_y2_a8_proc_1 >= 0
 c37: 946 pi_p_a8_a7 + 946 pi_d_a8_a2_proc_2 + 946 pi_d_a8_a3_proc_2
      + 946 pi_d_a8_a4_proc_2 + 946 pi_d_a8_a5_proc_2 + 946 pi_d_a8_a6_proc_2
      + 946 pi_d_a8_a7_proc_2 + 946 pi_d_a8_a9_proc_2 + pi_y1_a8
      + pi_y2_a8_proc_2 >= 0
 c38: 854 pi_p_a8_a7 + 854 pi_d_a8_a0_proc_3 + 854 pi_d_a8_a1_proc_3
      + 854 pi_d_a8_a2_proc_3 + 854 pi_d_a8_a3_proc_3 + 854 pi_d_a8_a4_proc_3
      + 854 pi_d_a8_a5_proc_3 + 854 pi_d_a8_a7_proc_3 + 854 pi_d_a8_a9_proc_3
      + pi_y1_a8 + pi_y2_a8_proc_3 >= 0
 c39: - pi_p_a7_a9 + pi_p_a9_a1 - pi_d_a0_a9_proc_3 + pi_d_a9_a0_proc_3
      - pi_d_a1_a9_proc_3 + pi_d_a9_a1_proc_3 - pi_d_a2_a9_proc_2
      - pi_d_a2_a9_proc_3 + pi_d_a9_a2_proc_2 + pi_d_a9_a2_proc_3
      - pi_d_a3_a9_proc_2 - pi_d_a3_a9_proc_3 - pi_d_a3_a9_proc_0
      + pi_d_a9_a3_proc_2 + pi_d_a9_a3_proc_3 + pi_d_a9_a3_proc_0
      - pi_d_a4_a9_proc_2 - pi_d_a4_a9_proc_3 - pi_d_a4_a9_proc_0
      + pi_d_a9_a4_proc_2 + pi_d_a9_a4_proc_3 + pi_d_a9_a4_proc_0
      - pi_d_a5_a9_proc_2 - pi_d_a5_a9_proc_3 + pi_d_a9_a5_proc_2
      + pi_d_a9_a5_proc_3 - pi_d_a6_a9_proc_2 - pi_d_a6_a9_proc_0
      + pi_d_a9_a6_proc_2 + pi_d_a9_a6_proc_0 - pi_d_a7_a9_proc_2
      - pi_d_a7_a9_proc_3 - pi_d_a7_a9_proc_0 + pi_d_a9_a7_proc_2
      + pi_d_a9_a7_proc_3 + pi_d_a9_a7_proc_0 - pi_d_a8_a9_proc_2
      - pi_d_a8_a9_proc_3 - pi_d_a8_a9_proc_0 + pi_d_a9_a8_proc_2
      + pi_d_a9_a8_proc_3 + pi_d_a9_a8_proc_0 >= 0
 c40: 1081 pi_p_a9_a1 + 1081 pi_d_a9_a3_proc_0 + 1081 pi_d_a9_a4_proc_0
      + 1081 pi_d_a9_a6_proc_0 + 1081 pi_d_a9_a7_proc_0 + 1081 pi_d_a9_a8_proc_0
      + pi_y1_a9 + pi_y2_a9_proc_0 >= 0
 c41: 411 pi_p_a9_a1 + 411 pi_d_a9_a2_proc_2 + 411 pi_d_a9_a3_proc_2
      + 411 pi_d_a9_a4_proc_2 + 411 pi_d_a9_a5_proc_2 + 411 pi_d_a9_a6_proc_2
      + 411 pi_d_a9_a7_proc_2 + 411 pi_d_a9_a8_proc_2 + pi_y1_a9
      + pi_y2_a9_proc_2 >= 0
 c42: 844 pi_p_a9_a1 + 844 pi_d_a9_a0_proc_3 + 844 pi_d_a9_a1_proc_3
      + 844 pi_d_a9_a2_proc_3 + 844 pi_d_a9_a3_proc_3 + 844 pi_d_a9_a4_proc_3
      + 844 pi_d_a9_a5_proc_3 + 844 pi_d_a9_a7_proc_3 + 844 pi_d_a9_a8_proc_3
      + pi_y1_a9 + pi_y2_a9_proc_3 >= 0

Bounds
       pi_y1_a0 Free
       pi_y1_a1 Free
       pi_y1_a2 Free
       pi_y1_a3 Free
       pi_y1_a4 Free
       pi_y1_a5 Free
       pi_y1_a6 Free
       pi_y1_a7 Free
       pi_y1_a8 Free
       pi_y1_a9 Free
End
