benchmark/results/graph__10-1000-0.10-04_8/graph__10-1000-0.10-04_8_QuintonOs_Benders_aux.txt
solution for: Quinton Bounded Benders_auxiliary_sub
objective: 0.000169176
status: OPTIMAL_SOLUTION(2)
pi_p_a3_a2=0.000
pi_p_a1_a5=0.000
pi_p_a8_a7=0.000
pi_p_a7_a9=0.000
pi_p_a5_a3=0.000
pi_p_a2_a4=0.000
pi_p_a4_a8=0.000
pi_p_a9_a1=0.000
pi_y1_a1=-0.161
pi_y1_a2=-0.192
pi_y1_a3=-0.095
pi_y1_a4=-0.079
pi_y1_a5=-0.097
pi_y1_a7=-0.171
pi_y1_a8=-0.135
pi_y1_a9=-0.070
